(declare-sort $$unsorted 0)
(declare-fun tptp.op ($$unsorted $$unsorted) $$unsorted)
(assert (forall ((X0 $$unsorted) (X1 $$unsorted) (X2 $$unsorted)) (= X0 (tptp.op (tptp.op X1 (tptp.op X2 X1)) (tptp.op X0 X2)))))
(assert (not (forall ((X0 $$unsorted) (X1 $$unsorted) (X2 $$unsorted)) (= X0 (tptp.op (tptp.op X1 X0) (tptp.op (tptp.op X2 X1) X2))))))
(set-info :filename Equation1977_implies_Equation1707)
(check-sat-assuming ( true ))
